NAME : lrc207.1062047.tour
COMMENT : Cost = 0_1062047
COMMENT : Found by LKH [Keld Helsgaun] Fri Sep 15 17:42:02 2017
TYPE : TOUR
DIMENSION : 105
TOUR_SECTION
1
66
84
65
96
64
34
31
29
30
32
68
72
73
42
40
39
41
45
43
62
82
91
54
79
80
9
47
5
4
2
44
37
36
38
102
55
105
83
100
53
60
76
24
22
19
20
77
52
86
85
57
93
95
97
94
63
51
35
28
27
33
90
49
26
103
25
67
92
81
104
70
99
89
3
46
6
7
8
74
13
15
48
18
17
16
12
10
88
87
75
58
23
21
50
78
59
98
14
11
61
56
101
71
69
-1
EOF
